; benchmark generated from python API
(set-info :status unknown)
(declare-datatypes ((RealState 0)) (((RMk1 (rval1 Real)) (RMk2 (rval2 Real)))))
 (assert
 (forall ((|v11:0| Real) )(forall ((|v10:1| Real) )(forall ((|v9:2| Real) )(forall ((|v8:3| Real) )(exists ((|v7:4_st| RealState) (val!3948 Real) )(exists ((|v6:5_st| RealState) (val!3949 Real) )(exists ((|v5:6_st| RealState) (val!3950 Real) )(exists ((|v4:7_st| RealState) (val!3951 Real) )(forall ((|v3:8| Real) )(forall ((|v2:9| Real) )(forall ((|v1:10| Real) )(forall ((|v0:11| Real) )(let ((?x1234 (- 4.0)))
 (let ((?x2422 (rval2 |v6:5_st|)))
 (let ((?x53 (* 10.0 ?x2422)))
 (let ((?x1475 (+ (+ (+ (* (- 9.0) |v2:9|) (* (- 10.0) ?x2422)) ?x53) (* (- 17.0) ?x2422))))
 (let ((?x269 (- 15.0)))
 (let ((?x623 (* ?x269 |v10:1|)))
 (let (($x1114 (<= (+ (+ (+ ?x623 (* (- 1.0) |v10:1|)) ?x623) (* 16.0 (rval2 |v4:7_st|))) 20.0)))
 (let ((?x619 (* 12.0 |v2:9|)))
 (let (($x414 (<= (+ (+ (+ (* ?x1234 |v2:9|) (* 14.0 |v11:0|)) (* 7.0 |v9:2|)) ?x619) 19.0)))
 (let ((?x2222 (* 8.0 |v9:2|)))
 (let ((?x931 (+ (+ (+ (* 20.0 |v2:9|) (* 5.0 ?x2422)) (* 8.0 (rval2 |v4:7_st|))) ?x2222)))
 (let ((?x1549 (- 6.0)))
 (let ((?x976 (* 14.0 |v11:0|)))
 (let ((?x888 (+ (+ (+ (* (- 1.0) |v3:8|) (* 18.0 |v10:1|)) (* 13.0 |v8:3|)) ?x976)))
 (let ((?x1671 (* 4.0 |v1:10|)))
 (let ((?x811 (+ (+ (+ (* (- 13.0) |v3:8|) (* 10.0 |v9:2|)) (* 7.0 (rval2 |v4:7_st|))) ?x1671)))
 (let ((?x372 (- 2.0)))
 (let ((?x1019 (* 18.0 |v1:10|)))
 (let ((?x813 (+ (+ (+ (* (- 11.0) ?x2422) (* 12.0 |v11:0|)) (* 11.0 |v9:2|)) ?x1019)))
 (let (($x2915 (<= (+ (+ (+ (* 18.0 |v2:9|) (* ?x1549 |v0:11|)) (* 7.0 |v3:8|)) |v8:3|) ?x269)))
 (let (($x937 (and (or (and $x2915 (<= ?x813 ?x372)) (or (<= ?x811 11.0) (<= ?x888 ?x1549))) (and (or (<= ?x931 12.0) $x414) (or $x1114 (<= ?x1475 ?x1234))))))
 (let ((?x3024 (- 20.0)))
 (let ((?x150 (- 10.0)))
 (let ((?x1235 (* ?x150 |v10:1|)))
 (let ((?x2023 (+ (+ (+ (* 5.0 |v10:1|) (* 5.0 (rval2 |v7:4_st|))) (* (- 1.0) |v2:9|)) ?x1235)))
 (let ((?x56 (- 13.0)))
 (let ((?x1682 (+ (+ (+ (* ?x1234 ?x2422) (* ?x269 |v0:11|)) (* 3.0 (rval2 |v4:7_st|))) (* 2.0 |v9:2|))))
 (let ((?x1190 (- 18.0)))
 (let ((?x1907 (* ?x1190 |v0:11|)))
 (let ((?x2881 (* 0.0 |v0:11|)))
 (let ((?x3051 (rval2 |v4:7_st|)))
 (let ((?x497 (* 2.0 ?x3051)))
 (let (($x1974 (<= (+ (+ (+ (* (- 1.0) (rval2 |v7:4_st|)) (* 6.0 |v8:3|)) ?x497) ?x2881) 13.0)))
 (let (($x213 (or (or $x1974 (<= (+ (+ (+ ?x53 (* 13.0 |v10:1|)) ?x2881) ?x1907) 14.0)) (and (<= ?x1682 ?x56) (<= ?x2023 ?x3024)))))
 (let ((?x2336 (- 14.0)))
 (let ((?x2372 (* ?x2336 |v11:0|)))
 (let (($x1700 (<= (+ (+ (+ (* (- 1.0) ?x3051) ?x2422) (* ?x269 |v11:0|)) ?x2372) 4.0)))
 (let ((?x450 (* ?x372 |v0:11|)))
 (let ((?x1396 (+ (+ (+ (* (- 12.0) |v0:11|) (* (- 16.0) |v9:2|)) (* 7.0 |v0:11|)) ?x450)))
 (let (($x2762 (<= (+ (+ (+ (* 0.0 |v9:2|) (* ?x372 |v11:0|)) ?x623) (* 2.0 |v8:3|)) 2.0)))
 (let ((?x2877 (- 9.0)))
 (let ((?x1247 (- 16.0)))
 (let ((?x162 (* ?x1247 |v1:10|)))
 (let ((?x83 (+ (+ (+ (* 14.0 |v2:9|) (* ?x269 (rval2 |v7:4_st|))) (* (- 12.0) ?x2422)) ?x162)))
 (let ((?x1213 (- 7.0)))
 (let ((?x2730 (+ (+ (+ (* ?x3024 |v9:2|) (* 15.0 ?x2422)) (* 3.0 (rval2 |v5:6_st|))) (* ?x1190 ?x3051))))
 (let ((?x1313 (+ (+ (+ (* (- 8.0) |v8:3|) |v9:2|) (* (- 5.0) ?x3051)) (* ?x372 ?x3051))))
 (let ((?x3042 (* 14.0 |v10:1|)))
 (let (($x135 (<= (+ (+ (+ (* ?x2336 ?x2422) (* 3.0 |v1:10|)) (* ?x269 |v11:0|)) ?x3042) 16.0)))
 (let ((?x3119 (* ?x56 |v1:10|)))
 (let (($x266 (<= (+ (+ (+ (* ?x269 |v2:9|) (* ?x1190 |v1:10|)) (* 2.0 ?x2422)) ?x3119) 7.0)))
 (let ((?x2066 (* 9.0 |v11:0|)))
 (let ((?x2068 (+ (+ (+ (* (- 11.0) |v10:1|) (* 4.0 ?x2422)) (* (- 3.0) |v11:0|)) ?x2066)))
 (let ((?x1716 (- 19.0)))
 (let ((?x1037 (* ?x1190 ?x2422)))
 (let ((?x962 (+ (+ (+ (* 18.0 ?x3051) (* 18.0 |v3:8|)) (* 16.0 (rval2 |v7:4_st|))) ?x1037)))
 (let ((?x482 (* 3.0 |v1:10|)))
 (let (($x170 (<= (+ (+ (+ (* 16.0 |v2:9|) (* ?x1549 |v9:2|)) (* ?x1190 |v11:0|)) ?x482) ?x269)))
 (let (($x305 (and (and (or $x170 (<= ?x962 ?x1716)) (or (<= ?x2068 0.0) $x266)) (or (or $x135 (<= ?x1313 6.0)) (or (<= ?x2730 ?x1213) (<= ?x83 ?x2877))))))
 (let ((?x1399 (+ (+ (+ (* ?x1234 |v1:10|) (* 11.0 |v8:3|)) (* 11.0 |v11:0|)) (* ?x150 |v8:3|))))
 (let ((?x2522 (+ (+ (+ (* 11.0 |v3:8|) (* (- 12.0) |v10:1|)) (* (- 1.0) |v11:0|)) ?x2066)))
 (let ((?x2155 (* 2.0 |v1:10|)))
 (let (($x2599 (<= (+ (+ (+ (* (- 5.0) |v11:0|) (* ?x3024 |v2:9|)) (* 12.0 |v11:0|)) ?x2155) ?x372)))
 (let ((?x1150 (- 11.0)))
 (let ((?x757 (* ?x1150 |v0:11|)))
 (let (($x1003 (<= (+ (+ (+ (* 5.0 |v11:0|) (* ?x2877 |v10:1|)) (* 10.0 |v8:3|)) ?x757) 11.0)))
 (let (($x2833 (or $x1003 (<= (+ (+ (+ ?x623 (* 8.0 |v10:1|)) ?x1671) (* ?x1549 |v10:1|)) 1.0))))
 (let ((?x1959 (+ (+ (+ (* (- 12.0) |v1:10|) (* (- 17.0) |v11:0|)) ?x3119) (* ?x372 ?x2422))))
 (let (($x2888 (and (<= (+ (+ (+ ?x1671 ?x2372) (* (- 17.0) |v9:2|)) (* ?x269 |v2:9|)) ?x1213) (<= ?x1959 12.0))))
 (let (($x1282 (or (and $x2888 $x2833) (or $x2599 (and (<= ?x2522 20.0) (<= ?x1399 ?x1190))))))
 (let (($x2278 (or (or $x1282 $x305) (and (or (or (and $x2762 (<= ?x1396 16.0)) $x1700) $x213) $x937))))
 (let ((?x823 (* 17.0 |v10:1|)))
 (let ((?x333 (+ (+ (+ (* 16.0 (rval2 |v7:4_st|)) (* ?x1213 (rval2 |v5:6_st|))) ?x823) (* 19.0 ?x2422))))
 (let (($x829 (<= (+ (+ (+ ?x3119 (* ?x1213 |v0:11|)) ?x53) (* (- 3.0) ?x3051)) 16.0)))
 (let ((?x3002 (- 3.0)))
 (let ((?x2444 (+ (+ (+ (* ?x3002 (rval2 |v7:4_st|)) (* ?x1716 |v8:3|)) (* ?x1247 ?x2422)) (* (- 12.0) ?x3051))))
 (let ((?x1538 (rval2 |v5:6_st|)))
 (let ((?x3124 (* 4.0 ?x1538)))
 (let (($x1680 (<= (+ (+ (+ (* ?x269 ?x1538) (* 13.0 |v1:10|)) (* 14.0 |v9:2|)) ?x3124) 16.0)))
 (let ((?x1693 (+ (+ (+ (* ?x2336 |v2:9|) (* 16.0 |v8:3|)) (* 10.0 |v11:0|)) (* ?x1150 ?x1538))))
 (let ((?x1033 (- 5.0)))
 (let ((?x2199 (* ?x372 |v8:3|)))
 (let ((?x1392 (- 8.0)))
 (let ((?x3188 (* ?x1392 |v11:0|)))
 (let ((?x1425 (+ (+ (+ (* 13.0 |v8:3|) (* 20.0 |v10:1|)) (* ?x2336 |v9:2|)) (* ?x1549 |v11:0|))))
 (let (($x1380 (or (<= ?x1425 ?x1213) (<= (+ (+ (+ ?x3188 (* (- 1.0) ?x3051)) ?x3188) ?x2199) ?x1033))))
 (let (($x2822 (and (or $x1380 (and (<= ?x1693 16.0) $x1680)) (and (or (<= ?x2444 ?x3002) $x829) (<= ?x333 ?x1190)))))
 (let ((?x158 (* ?x372 |v11:0|)))
 (let (($x1946 (<= (+ (+ (+ (* 5.0 (rval2 |v7:4_st|)) (* 17.0 |v3:8|)) ?x1019) ?x158) ?x3002)))
 (let ((?x991 (+ (+ (+ (* (- 17.0) |v10:1|) (* 5.0 |v11:0|)) (* 13.0 ?x2422)) (* ?x1392 ?x1538))))
 (let ((?x1783 (+ (+ (+ (* 15.0 |v1:10|) (* ?x3024 |v0:11|)) (* 11.0 (rval2 |v7:4_st|))) (* ?x2877 |v11:0|))))
 (let (($x1280 (<= (+ (+ (+ (* (- 12.0) |v10:1|) |v0:11|) (* (- 17.0) |v1:10|)) ?x53) 16.0)))
 (let ((?x1483 (+ (+ (+ (* ?x1213 |v0:11|) (* ?x1150 ?x3051)) (* ?x372 (rval2 |v7:4_st|))) (* 6.0 ?x3051))))
 (let ((?x795 (- 12.0)))
 (let ((?x1972 (+ (+ (+ (* 6.0 |v9:2|) (* ?x1549 |v8:3|)) (* 12.0 |v0:11|)) (* 19.0 |v9:2|))))
 (let ((?x2502 (+ (+ (+ (* 18.0 (rval2 |v7:4_st|)) ?x162) (* ?x1392 |v8:3|)) (* ?x56 ?x2422))))
 (let ((?x262 (+ (+ (+ (* ?x1190 |v1:10|) (* ?x1247 ?x1538)) (* ?x372 |v3:8|)) (* ?x1234 |v11:0|))))
 (let (($x137 (and (or (<= ?x262 ?x1716) (<= ?x2502 13.0)) (or (<= ?x1972 ?x795) (<= ?x1483 10.0)))))
 (let (($x1521 (and (or $x137 (or (and $x1280 (<= ?x1783 6.0)) (or (<= ?x991 ?x269) $x1946))) $x2822)))
 (let (($x2269 (<= (+ (+ (+ ?x3124 (* 10.0 (rval2 |v7:4_st|))) ?x757) (* ?x2336 ?x3051)) 15.0)))
 (let (($x329 (<= (+ (+ (+ ?x2199 (* 13.0 |v2:9|)) (* 12.0 |v9:2|)) (* ?x3024 |v3:8|)) ?x3024)))
 (let ((?x3107 (* ?x1549 |v0:11|)))
 (let (($x441 (<= (+ (+ (+ (* 19.0 ?x1538) (* (- 1.0) |v1:10|)) (* ?x1190 |v1:10|)) ?x3107) 13.0)))
 (let ((?x2867 (rval2 |v7:4_st|)))
 (let ((?x3200 (* ?x2877 ?x2867)))
 (let (($x595 (<= (+ (+ (+ (* 2.0 ?x1538) (* ?x1213 ?x3051)) (* (- 17.0) ?x2867)) ?x3200) 4.0)))
 (let (($x2584 (<= (+ (+ (+ ?x1037 (* 14.0 |v3:8|)) (* ?x795 |v3:8|)) (* ?x2336 |v9:2|)) 19.0)))
 (let ((?x2876 (* 9.0 |v1:10|)))
 (let (($x2403 (<= (+ (+ (+ (* ?x3002 |v3:8|) (* 19.0 |v0:11|)) (* 8.0 |v0:11|)) ?x2876) ?x795)))
 (let (($x2719 (<= (+ (+ (+ (* 15.0 |v8:3|) (* ?x1213 ?x2422)) (* 16.0 |v11:0|)) ?x823) ?x1033)))
 (let ((?x540 (* ?x795 ?x2422)))
 (let (($x334 (<= (+ (+ (+ (* ?x3002 |v1:10|) (* 13.0 ?x3051)) (* 8.0 ?x3051)) ?x540) ?x1392)))
 (let (($x1584 (or (and (or $x334 $x2719) (or $x2403 $x2584)) (and (and $x595 $x441) (and $x329 $x2269)))))
 (let ((?x2957 (- 1.0)))
 (let ((?x1346 (* 7.0 |v2:9|)))
 (let (($x129 (<= (+ (+ (+ (* 12.0 |v11:0|) (* ?x269 ?x3051)) (* (- 17.0) ?x3051)) ?x1346) ?x2957)))
 (let (($x285 (or (<= (+ (+ (+ (* ?x3002 |v0:11|) ?x1019) (* ?x3024 |v11:0|)) ?x823) 9.0) $x129)))
 (let ((?x2964 (+ (+ (+ (* 5.0 ?x1538) (* 18.0 |v2:9|)) (* 4.0 |v11:0|)) (* ?x150 |v11:0|))))
 (let (($x925 (or (<= (+ (+ (+ ?x3200 (* 17.0 |v9:2|)) (* 18.0 ?x3051)) |v10:1|) 13.0) (<= ?x2964 18.0))))
 (let ((?x1217 (* 7.0 |v3:8|)))
 (let (($x974 (<= (+ (+ (+ (* ?x1190 |v9:2|) (* 12.0 ?x1538)) (* ?x2957 |v2:9|)) ?x1217) ?x56)))
 (let ((?x2518 (* ?x1716 |v2:9|)))
 (let (($x3087 (<= (+ (+ (+ (* 8.0 ?x2867) (* 4.0 |v9:2|)) (* 10.0 |v9:2|)) ?x2518) ?x2877)))
 (let (($x1752 (<= (+ (+ (+ ?x2876 (* ?x1247 |v3:8|)) (* 10.0 |v0:11|)) (* 10.0 |v11:0|)) ?x795)))
 (let (($x828 (<= (+ (+ (+ (* 15.0 ?x2867) (* ?x3002 ?x2422)) (* ?x3002 |v0:11|)) ?x1235) ?x372)))
 (let (($x1182 (or (and (or (and (and $x828 $x1752) (or $x3087 $x974)) (or $x925 $x285)) $x1584) $x1521)))
 (let (($x3027 (not (= |v4:7_st| (RMk1 val!3951)))))
 (let (($x820 (not (= |v5:6_st| (RMk1 val!3950)))))
 (let (($x1286 (not (= |v6:5_st| (RMk1 val!3949)))))
 (let (($x2483 (not (= |v7:4_st| (RMk1 val!3948)))))
 (and $x2483 $x1286 $x820 $x3027 (and $x1182 $x2278)))))))))))))))))))))))))))))))))))))))))))))))))))))))))))))))))))))))))))))))))))))))))))))))))))))))))))))))))))))))))))))))))))))
 )
 )
 )
 )
 )
 )
 )
 )
 )
 )
 )
 )
(check-sat)
